AES/1_4_4/ssaes_r1-20_c4_rw1_e4_f0_k1-20_aes_1base_box_aes_mc_bidirectional/ExperimentMinisat_r6_k20cnf_2011-11-18-105150/Result
WARNING: for repeatability, setting FPU to use double precision
============================[ Problem Statistics ]=============================
|                                                                             |
|  Number of variables:           480                                         |
|  Number of clauses:            2026                                         |
|  Parse time:                   0.00 s                                       |
|  Eliminated clauses:           0.01 Mb                                      |
|  Simplification time:          0.00 s                                       |
|                                                                             |
=============================[ Search Statistics ]==============================
| Conflicts  |          ORIGINAL         |          LEARNT          | Progress |
|            |    Vars  Clauses Literals |    Limit  Clauses Lit/Cl |          |
================================================================================
|        100 |     312     1546     5056 |      566      100     21 | 11.668 % |
|        250 |     312     1546     5056 |      623      250     18 | 11.667 % |
|        475 |     312     1546     5056 |      685      475     18 | 11.667 % |
|        812 |     312     1546     5056 |      754      424     18 | 11.667 % |
|       1318 |     312     1546     5056 |      829      522     16 | 11.667 % |
|       2077 |     312     1546     5056 |      912      827     17 | 11.667 % |
|       3216 |     312     1546     5056 |     1004      974     16 | 11.667 % |
|       4924 |     312     1546     5056 |     1104     1061     15 | 11.667 % |
|       7486 |     312     1546     5056 |     1215      682      8 | 11.667 % |
|      11330 |     312     1546     5056 |     1336     1269     10 | 11.667 % |
|      17096 |     312     1546     5056 |     1470     1362     10 | 11.667 % |
|      25745 |     312     1546     5056 |     1617     1528     10 | 11.667 % |
|      38719 |     312     1546     5056 |     1779      962      8 | 11.667 % |
|      58180 |     312     1546     5056 |     1956      952      8 | 11.667 % |
===============================================================================
restarts              : 190
conflicts             : 61753          (53800 /sec)
decisions             : 67651          (0.00 % random) (58938 /sec)
propagations          : 5169158        (4503437 /sec)
conflict literals     : 834861         (35.03 % deleted)
Memory used           : 8.00 MB
CPU time              : 1.14783 s

SATISFIABLE
